results_rootrelaxation/bin012_080_033.srr.sol
solution status: optimal solution found
objective value:                     18.4139194139194
_var81_                             0.245421245421246 	(obj:2)
_var742_                            0.146520146520146 	(obj:3)
_var749_                            0.175824175824176 	(obj:2)
_var765_                            0.146520146520146 	(obj:2)
_var768_                           0.0329670329670331 	(obj:3)
_var773_                           0.0952380952380952 	(obj:0)
_var783_                           0.0952380952380952 	(obj:3)
_var794_                           0.0476190476190478 	(obj:4)
_var807_                            0.391941391941392 	(obj:1)
_var824_                             0.56043956043956 	(obj:1)
_var825_                             0.21978021978022 	(obj:1)
_var826_                           0.0549450549450551 	(obj:2)
_var831_                            0.172161172161172 	(obj:1)
_var832_                             0.56043956043956 	(obj:1)
_var847_                           0.0549450549450552 	(obj:1)
_var851_                            0.216117216117216 	(obj:2)
_var868_                             0.43956043956044 	(obj:1)
_var870_                            0.219780219780219 	(obj:2)
_var874_                            0.131868131868132 	(obj:2)
_var875_                           0.0842490842490845 	(obj:2)
_var877_                            0.168498168498169 	(obj:2)
_var880_                           0.0586080586080576 	(obj:2)
_var882_                          0.00732600732600741 	(obj:4)
_var888_                            0.340659340659341 	(obj:2)
_var892_                           0.0402930402930399 	(obj:2)
_var894_                            0.318681318681319 	(obj:1)
_var898_                             0.43956043956044 	(obj:1)
_var905_                            0.296703296703297 	(obj:0)
_var910_                             0.43956043956044 	(obj:2)
_var913_                            0.461538461538462 	(obj:1)
_var915_                           0.0329670329670332 	(obj:4)
_var916_                            0.146520146520147 	(obj:0)
_var919_                           0.0989010989010993 	(obj:1)
_var926_                             0.28937728937729 	(obj:3)
_var927_                            0.142857142857143 	(obj:1)
_var928_                            0.391941391941392 	(obj:1)
_var929_                            0.164835164835165 	(obj:2)
_var932_                            0.406593406593406 	(obj:2)
_var935_                            0.216117216117216 	(obj:3)
_var939_                            0.391941391941392 	(obj:1)
_var942_                           0.0512820512820517 	(obj:3)
_var944_                            0.205128205128206 	(obj:2)
_var945_                           0.0109890109890107 	(obj:3)
_var946_                            0.234432234432234 	(obj:4)
_var951_                            0.285714285714285 	(obj:3)
_var953_                            0.142857142857143 	(obj:2)
_var955_                             0.26007326007326 	(obj:3)
_var956_                           0.0476190476190478 	(obj:2)
_var959_                            0.175824175824175 	(obj:3)
_var962_                            0.014652014652014 	(obj:4)
_var963_                            0.296703296703297 	(obj:1)
_var970_                           0.0586080586080588 	(obj:2)
_var973_                           0.0402930402930405 	(obj:2)
_var975_                           0.0512820512820511 	(obj:2)
_var976_                           0.0695970695970698 	(obj:3)
_var977_                           0.0476190476190478 	(obj:3)
_var980_                           0.0476190476190482 	(obj:3)
_var981_                            0.014652014652015 	(obj:4)
